     Program PWSCF v.7.1 starts on 22Mar2025 at 20:18:30

     Reading input from graphene.band.in
     Message from routine read_cards :
     DEPRECATED: no units specified in ATOMIC_POSITIONS card
     Message from routine read_cards :
     ATOMIC_POSITIONS: units set to alat

     Current dimensions of program PWSCF are:
     Max number of different atomic species (ntypx) = 10
     Max number of k-points (npk) =  40000
     Max angular momentum in pseudopotentials (lmaxx) =  4

     R & G space division:  proc/nbgrp/npool/nimage =      24
     Subspace diagonalization in iterative solution of the eigenvalue problem:
     a serial algorithm will be used

     Using Slab Decomposition

     bravais-lattice index     =            4
     lattice parameter (alat)  =       4.6510  a.u.
     unit-cell volume          =     435.6519 (a.u.)^3
     number of atoms/cell      =            2
     number of atomic types    =            1
     number of electrons       =         8.00
     number of Kohn-Sham states=           20
     kinetic-energy cutoff     =      80.0000  Ry
     charge density cutoff     =     320.0000  Ry
     scf convergence threshold =      1.0E-10
     mixing beta               =       0.4000
     number of iterations used =            8  plain     mixing
     Exchange-correlation= SLA  PW   NOGX NOGC
                           (   1   4   0   0   0   0   0)

     celldm(1)=   4.651000  celldm(2)=   0.000000  celldm(3)=   5.000000
     celldm(4)=   0.000000  celldm(5)=   0.000000  celldm(6)=   0.000000

     crystal axes: (cart. coord. in units of alat)
               a(1) = (   1.000000   0.000000   0.000000 )
               a(2) = (  -0.500000   0.866025   0.000000 )
               a(3) = (   0.000000   0.000000   5.000000 )

     reciprocal axes: (cart. coord. in units 2 pi/alat)
               b(1) = (  1.000000  0.577350  0.000000 )
               b(2) = (  0.000000  1.154701  0.000000 )
               b(3) = (  0.000000  0.000000  0.200000 )

     PseudoPot. # 1 for C  read from file:
     ./C.UPF
     MD5 check sum: c9bd9c91d9c48f3c1b9c51e450525728
     Pseudo is Norm-conserving + core correction, Zval =  4.0
     Generated using ONCVPSP code by D. R. Hamann
     Using radial grid of 1234 points,  4 beta functions with:
                l(1) =   0
                l(2) =   0
                l(3) =   1
                l(4) =   1

     atomic species   valence    mass     pseudopotential
        C              4.00    12.01070     C ( 1.00)

     24 Sym. Ops., with inversion, found

   Cartesian axes

     site n.     atom                  positions (alat units)
         1           C   tau(   1) = (   0.5000000  -0.2886751   0.0000000  )
         2           C   tau(   2) = (   0.5000000   0.2886751   0.0000000  )

     number of k points=   200  Gaussian smearing, width (Ry)=  0.0200

     Number of k-points >= 100: set verbosity='high' to print them.

     Initial potential from superposition of free atoms

     starting charge       7.9999, renormalised to       8.0000

     negative rho (up, down):  1.000E-05 0.000E+00
     Starting wfcs are    8 randomized atomic wfcs +   12 random wfcs

     Self-consistent Calculation

     iteration #  1     ecut=    80.00 Ry     beta= 0.40
     Davidson diagonalization with overlap
     ethr =  1.00E-02,  avg # of iterations =  8.2

     negative rho (up, down):  5.436E-06 0.000E+00

     total energy              =     -24.03959781 Ry
     estimated scf accuracy    <       0.23525467 Ry

[...]

     negative rho (up, down):  1.440E-06 0.000E+00

[...]

     iteration #  4     ecut=    80.00 Ry     beta= 0.40
     Davidson diagonalization with overlap
     c_bands:  1 eigenvalues not converged
     ethr =  1.26E-05,  avg # of iterations =  5.8

[...]

     total energy              =     -24.03455873 Ry
     estimated scf accuracy    <          3.6E-10 Ry

     iteration #  9     ecut=    80.00 Ry     beta= 0.40
     Davidson diagonalization with overlap
     ethr =  4.45E-12,  avg # of iterations =  2.1

     End of self-consistent calculation

     Number of k-points >= 100: set verbosity='high' to print the bands.

     the Fermi energy is    -1.3814 ev

!    total energy              =     -24.03455873 Ry
     estimated scf accuracy    <          3.2E-11 Ry
     smearing contrib. (-TS)   =      -0.00049280 Ry
     internal energy E=F+TS    =     -24.03406593 Ry

     The total energy is F=E-TS. E is the sum of the following terms:
     one-electron contribution =    -121.48760636 Ry
     hartree contribution      =      62.42147705 Ry
     xc contribution           =      -8.56357387 Ry
     ewald contribution        =      43.59563726 Ry

     convergence has been achieved in   9 iterations

     Forces acting on atoms (cartesian axes, Ry/au):

     atom    1 type  1   force =     0.00000000    0.00000000    0.00000000
     atom    2 type  1   force =     0.00000000   -0.00000000    0.00000000

     Total force =     0.000000     Total SCF correction =     0.000000

     Writing all to output data dir ./graphene.save/

     General routines

     Parallel routines

   This run was terminated on:  20:19: 3  22Mar2025

   JOB DONE.