     Program PWSCF v.7.1 starts on 22Mar2025 at 20:17:58

     Reading input from graphene.sc.in
     Message from routine read_cards :
     DEPRECATED: no units specified in ATOMIC_POSITIONS card
     Message from routine read_cards :
     ATOMIC_POSITIONS: units set to alat

     Current dimensions of program PWSCF are:
     Max number of different atomic species (ntypx) = 10
     Max number of k-points (npk) =  40000
     Max angular momentum in pseudopotentials (lmaxx) =  4

     R & G space division:  proc/nbgrp/npool/nimage =      24
     Subspace diagonalization in iterative solution of the eigenvalue problem:
     a serial algorithm will be used

     Using Slab Decomposition

     bravais-lattice index     =            4
     lattice parameter (alat)  =       4.6510  a.u.
     unit-cell volume          =     435.6519 (a.u.)^3
     number of atoms/cell      =            2
     number of atomic types    =            1
     number of electrons       =         8.00
     number of Kohn-Sham states=           20
     kinetic-energy cutoff     =      80.0000  Ry
     charge density cutoff     =     320.0000  Ry
     scf convergence threshold =      1.0E-10
     mixing beta               =       0.4000
     number of iterations used =            8  plain     mixing
     Exchange-correlation= SLA  PW   NOGX NOGC
                           (   1   4   0   0   0   0   0)

     celldm(1)=   4.651000  celldm(2)=   0.000000  celldm(3)=   5.000000
     celldm(4)=   0.000000  celldm(5)=   0.000000  celldm(6)=   0.000000

     crystal axes: (cart. coord. in units of alat)
               a(1) = (   1.000000   0.000000   0.000000 )
               a(2) = (  -0.500000   0.866025   0.000000 )
               a(3) = (   0.000000   0.000000   5.000000 )

     reciprocal axes: (cart. coord. in units 2 pi/alat)
               b(1) = (  1.000000  0.577350  0.000000 )
               b(2) = (  0.000000  1.154701  0.000000 )
               b(3) = (  0.000000  0.000000  0.200000 )

     PseudoPot. # 1 for C  read from file:
     ./C.UPF
     MD5 check sum: c9bd9c91d9c48f3c1b9c51e450525728
     Pseudo is Norm-conserving + core correction, Zval =  4.0
     Generated using ONCVPSP code by D. R. Hamann
     Using radial grid of 1234 points,  4 beta functions with:
                l(1) =   0
                l(2) =   0
                l(3) =   1
                l(4) =   1

     atomic species   valence    mass     pseudopotential
        C              4.00    12.01070     C ( 1.00)

     24 Sym. Ops., with inversion, found

   Cartesian axes

     site n.     atom                  positions (alat units)
         1           C   tau(   1) = (   0.5000000  -0.2886751   0.0000000  )
         2           C   tau(   2) = (   0.5000000   0.2886751   0.0000000  )

     number of k points=    44  Gaussian smearing, width (Ry)=  0.0200
                       cart. coord. in units 2pi/alat
        k(    1) = (   0.0000000   0.0000000   0.0000000), wk =   0.0050000
        k(    2) = (   0.0000000   0.0577350   0.0000000), wk =   0.0300000
        k(    3) = (   0.0000000   0.1154701   0.0000000), wk =   0.0300000
        k(    4) = (   0.0000000   0.1732051   0.0000000), wk =   0.0300000
        k(    5) = (   0.0000000   0.2309401   0.0000000), wk =   0.0300000
        k(    6) = (   0.0000000   0.2886751   0.0000000), wk =   0.0300000
        k(    7) = (   0.0000000   0.3464102   0.0000000), wk =   0.0300000
        k(    8) = (   0.0000000   0.4041452   0.0000000), wk =   0.0300000
        k(    9) = (   0.0000000   0.4618802   0.0000000), wk =   0.0300000
        k(   10) = (   0.0000000   0.5196152   0.0000000), wk =   0.0300000
        k(   11) = (   0.0000000  -0.5773503   0.0000000), wk =   0.0150000
        k(   12) = (   0.0500000   0.0866025   0.0000000), wk =   0.0300000
        k(   13) = (   0.0500000   0.1443376   0.0000000), wk =   0.0600000
        k(   14) = (   0.0500000   0.2020726   0.0000000), wk =   0.0600000
        k(   15) = (   0.0500000   0.2598076   0.0000000), wk =   0.0600000
        k(   16) = (   0.0500000   0.3175426   0.0000000), wk =   0.0600000
        k(   17) = (   0.0500000   0.3752777   0.0000000), wk =   0.0600000
        k(   18) = (   0.0500000   0.4330127   0.0000000), wk =   0.0600000
        k(   19) = (   0.0500000   0.4907477   0.0000000), wk =   0.0600000
        k(   20) = (   0.0500000   0.5484828   0.0000000), wk =   0.0600000
        k(   21) = (   0.1000000   0.1732051   0.0000000), wk =   0.0300000
        k(   22) = (   0.1000000   0.2309401   0.0000000), wk =   0.0600000
        k(   23) = (   0.1000000   0.2886751   0.0000000), wk =   0.0600000
        k(   24) = (   0.1000000   0.3464102   0.0000000), wk =   0.0600000
        k(   25) = (   0.1000000   0.4041452   0.0000000), wk =   0.0600000
        k(   26) = (   0.1000000   0.4618802   0.0000000), wk =   0.0600000
        k(   27) = (   0.1000000   0.5196152   0.0000000), wk =   0.0600000
        k(   28) = (   0.1000000   0.5773503   0.0000000), wk =   0.0300000
        k(   29) = (   0.1500000   0.2598076   0.0000000), wk =   0.0300000
        k(   30) = (   0.1500000   0.3175426   0.0000000), wk =   0.0600000
        k(   31) = (   0.1500000   0.3752777   0.0000000), wk =   0.0600000
        k(   32) = (   0.1500000   0.4330127   0.0000000), wk =   0.0600000
        k(   33) = (   0.1500000   0.4907477   0.0000000), wk =   0.0600000
        k(   34) = (   0.1500000   0.5484828   0.0000000), wk =   0.0600000
        k(   35) = (   0.2000000   0.3464102   0.0000000), wk =   0.0300000
        k(   36) = (   0.2000000   0.4041452   0.0000000), wk =   0.0600000
        k(   37) = (   0.2000000   0.4618802   0.0000000), wk =   0.0600000
        k(   38) = (   0.2000000   0.5196152   0.0000000), wk =   0.0600000
        k(   39) = (   0.2000000   0.5773503   0.0000000), wk =   0.0300000
        k(   40) = (   0.2500000   0.4330127   0.0000000), wk =   0.0300000
        k(   41) = (   0.2500000   0.4907477   0.0000000), wk =   0.0600000
        k(   42) = (   0.2500000   0.5484828   0.0000000), wk =   0.0600000
        k(   43) = (   0.3000000   0.5196152   0.0000000), wk =   0.0300000
        k(   44) = (   0.3000000   0.5773503   0.0000000), wk =   0.0300000

     Initial potential from superposition of free atoms

     starting charge       7.9999, renormalised to       8.0000

     negative rho (up, down):  1.000E-05 0.000E+00
     Starting wfcs are    8 randomized atomic wfcs +   12 random wfcs

     Self-consistent Calculation

     iteration #  1     ecut=    80.00 Ry     beta= 0.40
     Davidson diagonalization with overlap
     ethr =  1.00E-02,  avg # of iterations =  8.2

     negative rho (up, down):  5.465E-06 0.000E+00

     total energy              =     -24.12676788 Ry
     estimated scf accuracy    <       0.21489150 Ry

[...]

     negative rho (up, down):  1.512E-06 0.000E+00

[...]

     total energy              =     -24.12309566 Ry
     estimated scf accuracy    <          2.7E-10 Ry

     iteration #  9     ecut=    80.00 Ry     beta= 0.40
     Davidson diagonalization with overlap
     ethr =  3.43E-12,  avg # of iterations =  1.7

     End of self-consistent calculation

          k = 0.0000 0.0000 0.0000 (  5299 PWs)   bands (ev):

   -20.7920  -9.1222  -4.4551  -4.4551   1.9297   3.1557   3.9098   6.8082
     6.9514   6.9514   8.0441   9.9253  11.4885  12.7088  14.5421  20.5056
    20.8308  23.1725  27.1347  27.1347

[...]

          k = 0.3000 0.5774 0.0000 (  5236 PWs)   bands (ev):

   -14.1621 -13.6641 -11.9175  -1.8756  -0.9992   9.0569  11.2988  11.4209
    11.8393  13.3863  13.7984  13.9973  14.0580  14.8154  15.3376  15.5136
    16.1208  16.8699  16.9865  17.8250

     the Fermi energy is    -1.4374 ev

!    total energy              =     -24.12309566 Ry
     estimated scf accuracy    <          2.6E-11 Ry
     smearing contrib. (-TS)   =      -0.00002532 Ry
     internal energy E=F+TS    =     -24.12307034 Ry

     The total energy is F=E-TS. E is the sum of the following terms:
     one-electron contribution =    -121.54868345 Ry
     hartree contribution      =      62.37494002 Ry
     xc contribution           =      -8.54496416 Ry
     ewald contribution        =      43.59563726 Ry

     convergence has been achieved in   9 iterations

     Forces acting on atoms (cartesian axes, Ry/au):

     atom    1 type  1   force =     0.00000000    0.00000000    0.00000000
     atom    2 type  1   force =     0.00000000   -0.00000000    0.00000000

     Total force =     0.000000     Total SCF correction =     0.000000

     Writing all to output data dir ./graphene.save/

     General routines

     Parallel routines

   This run was terminated on:  20:18: 6  22Mar2025

   JOB DONE.